\* Dreamteam *\
Maximize
OBJ: 1.25771257033 x_0 + 1.8472656012 x_1 + 2.1155788841 x_100
 + 0.631440827142 x_102 + 0.713569441654 x_106 + 1.57597646928 x_110
 + 0.0391427232973 x_113 + 0.0367544343712 x_114 + 0.416747815538 x_115
 + 0.0357180657631 x_122 + 0.66328753175 x_123 + 0.859261508871 x_124
 + 0.667170474413 x_126 + 0.0134782608696 x_128 + 0.00695652173913 x_130
 + x_131 + 0.720943673592 x_132 + 0.0263890306832 x_136 + 0.87729504471 x_137
 + 0.646069764869 x_138 + 0.698545659244 x_139 + 0.0186956521739 x_140
 + 0.0305958008919 x_141 + x_142 + 1.97443482124 x_146 + 1.82975168648 x_148
 + 1.38035521031 x_15 + 2.36897326238 x_151 + 0.966506506765 x_152
 + 1.1368968013 x_154 + 1.24161005044 x_155 + 2.31352776867 x_156
 + 0.727162930254 x_159 + 0.528186081301 x_16 + 0.423599400829 x_160
 + 0.812718259542 x_161 + 2.5334881174 x_162 + 0.654516438615 x_165
 + 0.775664354973 x_21 + 1.67616396113 x_30 + 0.685604352185 x_32
 + 1.01771537083 x_34 + 0.642453245267 x_36 + 0.341380734348 x_39
 + 2.63533737231 x_42 + 5.02165056443 x_43 + 0.815987939992 x_45
 + 2.43089939817 x_46 + 0.0117391304348 x_47 + 0.318262287514 x_5
 + 0.744143858934 x_50 + 1.23632381176 x_52 + 2.52666162377 x_56
 + 7.87330038446 x_57 + 4.65524381524 x_60 + 4.42991935553 x_62
 + 0.864998722555 x_64 + 2.33136726694 x_68 + 1.80666993262 x_7
 + 6.92585067663 x_70 + 0.975905565826 x_71 + 6.80935762874 x_72
 + 33.6544275698 x_74 + 1.73153815375 x_75 + 3.65404628217 x_76
 + 0.649740099945 x_79 + 2.02927438548 x_8 + 3.20104048393 x_80
 + 0.232412364662 x_82 + 0.0191612537631 x_83 + 3.95812622729 x_85
 + 2.66875266496 x_87 + 3.63413743455 x_88 + 1.70753349798 x_89
 + 1.54852932855 x_90 + 0.13129081808 x_93 + 1.61836048211 x_94
 + 5.84179834219 x_95
Subject To
_C1: x_0 + x_1 + x_10 + x_100 + x_101 + x_102 + x_103 + x_104 + x_105 + x_106
 + x_107 + x_108 + x_109 + x_11 + x_110 + x_111 + x_112 + x_113 + x_114
 + x_115 + x_116 + x_117 + x_118 + x_119 + x_12 + x_120 + x_121 + x_122
 + x_123 + x_124 + x_125 + x_126 + x_127 + x_128 + x_129 + x_13 + x_130
 + x_131 + x_132 + x_133 + x_134 + x_135 + x_136 + x_137 + x_138 + x_139
 + x_14 + x_140 + x_141 + x_142 + x_143 + x_144 + x_145 + x_146 + x_147
 + x_148 + x_149 + x_15 + x_150 + x_151 + x_152 + x_153 + x_154 + x_155
 + x_156 + x_157 + x_158 + x_159 + x_16 + x_160 + x_161 + x_162 + x_163
 + x_164 + x_165 + x_166 + x_167 + x_168 + x_169 + x_17 + x_170 + x_171
 + x_172 + x_173 + x_174 + x_175 + x_176 + x_177 + x_178 + x_179 + x_18
 + x_180 + x_181 + x_182 + x_183 + x_184 + x_185 + x_19 + x_2 + x_20 + x_21
 + x_22 + x_23 + x_24 + x_25 + x_26 + x_27 + x_28 + x_29 + x_3 + x_30 + x_31
 + x_32 + x_33 + x_34 + x_35 + x_36 + x_37 + x_38 + x_39 + x_4 + x_40 + x_41
 + x_42 + x_43 + x_44 + x_45 + x_46 + x_47 + x_48 + x_49 + x_5 + x_50 + x_51
 + x_52 + x_53 + x_54 + x_55 + x_56 + x_57 + x_58 + x_59 + x_6 + x_60 + x_61
 + x_62 + x_63 + x_64 + x_65 + x_66 + x_67 + x_68 + x_69 + x_7 + x_70 + x_71
 + x_72 + x_73 + x_74 + x_75 + x_76 + x_77 + x_78 + x_79 + x_8 + x_80 + x_81
 + x_82 + x_83 + x_84 + x_85 + x_86 + x_87 + x_88 + x_89 + x_9 + x_90 + x_91
 + x_92 + x_93 + x_94 + x_95 + x_96 + x_97 + x_98 + x_99 = 1
_C10: x_10 + x_113 + x_115 + x_116 + x_118 + x_120 + x_121 + x_125 + x_127
 + x_128 + x_132 + x_139 + x_140 + x_143 + x_144 + x_145 + x_146 + x_148
 + x_15 + x_151 + x_154 + x_155 + x_156 + x_159 + x_160 + x_161 + x_163
 + x_164 + x_165 + x_177 + x_18 + x_182 + x_30 + x_35 + x_39 + x_45 + x_47
 + x_5 + x_51 + x_52 + x_54 + x_55 + x_58 + x_61 + x_62 + x_63 + x_64 + x_7
 + x_70 + x_74 + x_8 + x_80 + x_82 + x_83 + x_84 + x_85 + x_86 + x_87 + x_88
 + x_89 + x_90 <= 5
_C2: x_1 + x_102 + x_146 + x_148 + x_15 + x_156 + x_160 + x_32 + x_34 + x_5
 + x_50 + x_52 + x_56 + x_60 + x_62 + x_70 + x_71 + x_80 + x_83 + x_88 + x_89
 + x_93 + x_94 >= 0
_C3: x_0 + x_100 + x_106 + x_110 + x_114 + x_115 + x_123 + x_124 + x_126
 + x_128 + x_138 + x_140 + x_154 + x_165 + x_30 + x_36 + x_43 + x_47 + x_57
 + x_64 + x_7 + x_72 + x_76 + x_85 + x_90 + x_95 >= 1
_C4: x_113 + x_132 + x_136 + x_137 + x_159 + x_39 + x_42 + x_45 + x_46 + x_79
 + x_82 >= 0
_C5: x_131 + x_142 + x_60 + x_70 + x_80 + x_88 >= 0
_C6: x_122 + x_130 + x_139 + x_141 + x_151 + x_152 + x_155 + x_16 + x_161
 + x_162 + x_21 + x_68 + x_74 + x_75 + x_8 + x_87 >= 0
_C7: 20 x_0 + 20 x_1 + 200 x_10 + 50 x_100 + 20 x_101 + 20 x_102 + 20 x_103
 + 100 x_104 + 150 x_105 + 20 x_106 + 20 x_107 + 50 x_108 + 200 x_109
 + 100 x_11 + 50 x_110 + 100 x_111 + 20 x_112 + 20 x_113 + 20 x_114 + 50 x_115
 + 200 x_116 + 20 x_117 + 20 x_118 + 20 x_119 + 30 x_12 + 75 x_120 + 50 x_121
 + 20 x_122 + 20 x_123 + 30 x_124 + 50 x_125 + 75 x_126 + 20 x_127 + 50 x_128
 + 50 x_129 + 55 x_13 + 20 x_130 + 20 x_131 + 20 x_132 + 20 x_133 + 20 x_134
 + 20 x_135 + 20 x_136 + 20 x_137 + 50 x_138 + 50 x_139 + 30 x_14 + 20 x_140
 + 20 x_141 + 20 x_142 + 50 x_143 + 50 x_144 + 50 x_145 + 200 x_146 + 20 x_147
 + 150 x_148 + 20 x_149 + 75 x_15 + 20 x_150 + 100 x_151 + 20 x_152 + 50 x_153
 + 75 x_154 + 50 x_155 + 200 x_156 + 20 x_157 + 30 x_158 + 100 x_159 + 20 x_16
 + 100 x_160 + 50 x_161 + 20 x_162 + 50 x_163 + 75 x_164 + 50 x_165 + 20 x_166
 + 20 x_167 + 20 x_168 + 20 x_169 + 20 x_17 + 20 x_170 + 20 x_171 + 20 x_172
 + 20 x_173 + 50 x_174 + 20 x_175 + 20 x_176 + 30 x_177 + 20 x_178 + 20 x_179
 + 50 x_18 + 20 x_180 + 20 x_181 + 50 x_182 + 20 x_183 + 20 x_184 + 20 x_185
 + 40 x_19 + 20 x_2 + 20 x_20 + 20 x_21 + 200 x_22 + 50 x_23 + 200 x_24
 + 200 x_25 + 200 x_26 + 20 x_27 + 55 x_28 + 20 x_29 + 50 x_3 + 150 x_30
 + 1500 x_31 + 20 x_32 + 200 x_33 + 20 x_34 + 1500 x_35 + 20 x_36 + 200 x_37
 + 50 x_38 + 100 x_39 + 100 x_4 + 200 x_40 + 50 x_41 + 20 x_42 + 75 x_43
 + 10 x_44 + 20 x_45 + 50 x_46 + 75 x_47 + 100 x_48 + 20 x_49 + 20 x_5
 + 20 x_50 + 100 x_51 + 150 x_52 + 200 x_53 + 150 x_54 + 200 x_55 + 20 x_56
 + 200 x_57 + 100 x_58 + 20 x_59 + 20 x_6 + 20 x_60 + 75 x_61 + 50 x_62
 + 200 x_63 + 20 x_64 + 100 x_65 + 30 x_66 + 50 x_67 + 50 x_68 + 100 x_69
 + 50 x_7 + 20 x_70 + 20 x_71 + 50 x_72 + 50 x_73 + 50 x_74 + 20 x_75
 + 40 x_76 + 100 x_77 + 20 x_78 + 20 x_79 + 100 x_8 + 200 x_80 + 75 x_81
 + 100 x_82 + 20 x_83 + 100 x_84 + 50 x_85 + 20 x_86 + 200 x_87 + 20 x_88
 + 20 x_89 + 20 x_9 + 50 x_90 + 20 x_91 + 20 x_92 + 50 x_93 + 200 x_94
 + 50 x_95 + 50 x_96 + 200 x_97 + 50 x_98 + 30 x_99 <= 1259.2
_C8: x_10 + x_101 + x_103 + x_104 + x_105 + x_107 + x_109 + x_11 + x_116
 + x_117 + x_119 + x_120 + x_125 + x_127 + x_13 + x_133 + x_134 + x_14 + x_143
 + x_144 + x_145 + x_147 + x_149 + x_150 + x_153 + x_157 + x_158 + x_163
 + x_164 + x_166 + x_167 + x_168 + x_169 + x_170 + x_171 + x_172 + x_173
 + x_174 + x_175 + x_176 + x_177 + x_178 + x_179 + x_18 + x_180 + x_181
 + x_182 + x_183 + x_184 + x_185 + x_19 + x_2 + x_22 + x_23 + x_24 + x_25
 + x_26 + x_28 + x_29 + x_3 + x_31 + x_35 + x_37 + x_4 + x_40 + x_41 + x_48
 + x_55 + x_58 + x_61 + x_65 + x_66 + x_69 + x_73 + x_77 + x_78 + x_81 + x_84
 + x_86 + x_91 + x_92 + x_96 + x_97 + x_98 + x_99 = 0
_C9: x_108 + x_111 + x_112 + x_118 + x_121 + x_129 + x_135 + x_17 + x_20
 + x_27 + x_33 + x_38 + x_44 + x_49 + x_51 + x_53 + x_54 + x_59 + x_6 + x_63
 + x_67 + x_9 = 0
Binaries
x_0
x_1
x_10
x_100
x_101
x_102
x_103
x_104
x_105
x_106
x_107
x_108
x_109
x_11
x_110
x_111
x_112
x_113
x_114
x_115
x_116
x_117
x_118
x_119
x_12
x_120
x_121
x_122
x_123
x_124
x_125
x_126
x_127
x_128
x_129
x_13
x_130
x_131
x_132
x_133
x_134
x_135
x_136
x_137
x_138
x_139
x_14
x_140
x_141
x_142
x_143
x_144
x_145
x_146
x_147
x_148
x_149
x_15
x_150
x_151
x_152
x_153
x_154
x_155
x_156
x_157
x_158
x_159
x_16
x_160
x_161
x_162
x_163
x_164
x_165
x_166
x_167
x_168
x_169
x_17
x_170
x_171
x_172
x_173
x_174
x_175
x_176
x_177
x_178
x_179
x_18
x_180
x_181
x_182
x_183
x_184
x_185
x_19
x_2
x_20
x_21
x_22
x_23
x_24
x_25
x_26
x_27
x_28
x_29
x_3
x_30
x_31
x_32
x_33
x_34
x_35
x_36
x_37
x_38
x_39
x_4
x_40
x_41
x_42
x_43
x_44
x_45
x_46
x_47
x_48
x_49
x_5
x_50
x_51
x_52
x_53
x_54
x_55
x_56
x_57
x_58
x_59
x_6
x_60
x_61
x_62
x_63
x_64
x_65
x_66
x_67
x_68
x_69
x_7
x_70
x_71
x_72
x_73
x_74
x_75
x_76
x_77
x_78
x_79
x_8
x_80
x_81
x_82
x_83
x_84
x_85
x_86
x_87
x_88
x_89
x_9
x_90
x_91
x_92
x_93
x_94
x_95
x_96
x_97
x_98
x_99
End
